<number of tasks>
50

<cycle time>
1000

<order strength>
0.896


<task times>
1 408
2 350
3 356
4 474
5 603
6 715
7 563
8 264
9 531
10 448
11 264
12 448
13 452
14 501
15 422
16 498
17 547
18 644
19 476
20 549
21 453
22 273
23 536
24 442
25 683
26 757
27 544
28 586
29 579
30 551
31 423
32 345
33 359
34 424
35 307
36 718
37 622
38 424
39 599
40 375
41 487
42 500
43 257
44 414
45 469
46 524
47 517
48 384
49 531
50 455

<precedence relations>
1,4
1,7
2,4
2,5
2,6
2,7
3,4
3,5
3,6
3,7
4,8
4,9
4,10
5,8
5,9
5,10
6,8
6,9
6,10
7,8
7,9
7,10
8,11
8,12
8,13
8,14
9,11
9,12
9,13
9,14
10,11
10,12
10,13
10,14
11,15
11,16
11,17
12,15
12,16
12,17
13,15
13,16
13,17
14,15
14,16
14,17
15,18
15,19
16,18
16,19
17,18
17,19
18,20
18,21
19,20
19,21
20,22
20,23
21,22
21,23
22,24
22,25
23,24
23,25
24,37
24,41
25,26
26,27
26,28
26,29
27,31
28,30
28,43
29,30
29,31
29,32
30,33
31,35
32,33
32,34
32,35
33,36
34,37
34,46
35,36
35,37
35,38
36,40
36,41
36,42
37,42
38,39
39,43
39,45
40,46
40,48
41,46
41,48
42,44
42,45
43,46
43,47
44,47
46,49
47,48
47,49
47,50

<end>
